<instance format="XCSP3" type="CSP">
  <variables>
    <array id="x" size="[120]"> 0 1 </array>
  </variables>
  <constraints>
    <group>
      <sum>
        <list> %... </list>
        <coeffs> -1 1 1 1 1 </coeffs>
        <condition> (ge,0) </condition>
      </sum>
      <args> x[26] x[104..107] </args>
      <args> x[19] x[116..119] </args>
      <args> x[12] x[88..91] </args>
      <args> x[68] x[112..115] </args>
      <args> x[23] x[92..95] </args>
      <args> x[67] x[108..111] </args>
      <args> x[14] x[96..99] </args>
      <args> x[0] x[80..83] </args>
      <args> x[45] x[100..103] </args>
      <args> x[60] x[80..83] </args>
      <args> x[28] x[112..115] </args>
      <args> x[34] x[96..99] </args>
      <args> x[15] x[100..103] </args>
      <args> x[62] x[88..91] </args>
      <args> x[63] x[92..95] </args>
      <args> x[76] x[104..107] </args>
      <args> x[38] x[112..115] </args>
      <args> x[33] x[92..95] </args>
      <args> x[52] x[88..91] </args>
      <args> x[48] x[112..115] </args>
      <args> x[78] x[112..115] </args>
      <args> x[54] x[96..99] </args>
      <args> x[53] x[92..95] </args>
      <args> x[64] x[96..99] </args>
      <args> x[73] x[92..95] </args>
      <args> x[66] x[104..107] </args>
      <args> x[41] x[84..87] </args>
      <args> x[39] x[116..119] </args>
      <args> x[40] x[80..83] </args>
      <args> x[32] x[88..91] </args>
      <args> x[55] x[100..103] </args>
      <args> x[31] x[84..87] </args>
      <args> x[70] x[80..83] </args>
      <args> x[27] x[108..111] </args>
      <args> x[37] x[108..111] </args>
      <args> x[11] x[84..87] </args>
      <args> x[74] x[96..99] </args>
      <args> x[75] x[100..103] </args>
      <args> x[35] x[100..103] </args>
      <args> x[7] x[108..111] </args>
      <args> x[43] x[92..95] </args>
      <args> x[13] x[92..95] </args>
      <args> x[24] x[96..99] </args>
      <args> x[50] x[80..83] </args>
      <args> x[18] x[112..115] </args>
      <args> x[10] x[80..83] </args>
      <args> x[57] x[108..111] </args>
      <args> x[42] x[88..91] </args>
      <args> x[72] x[88..91] </args>
      <args> x[21] x[84..87] </args>
      <args> x[49] x[116..119] </args>
      <args> x[56] x[104..107] </args>
      <args> x[58] x[112..115] </args>
      <args> x[4] x[96..99] </args>
      <args> x[6] x[104..107] </args>
      <args> x[22] x[88..91] </args>
      <args> x[51] x[84..87] </args>
      <args> x[44] x[96..99] </args>
      <args> x[59] x[116..119] </args>
      <args> x[20] x[80..83] </args>
      <args> x[36] x[104..107] </args>
      <args> x[16] x[104..107] </args>
      <args> x[69] x[116..119] </args>
      <args> x[47] x[108..111] </args>
      <args> x[79] x[116..119] </args>
      <args> x[61] x[84..87] </args>
      <args> x[71] x[84..87] </args>
      <args> x[3] x[92..95] </args>
      <args> x[17] x[108..111] </args>
      <args> x[29] x[116..119] </args>
      <args> x[1] x[84..87] </args>
      <args> x[25] x[100..103] </args>
      <args> x[30] x[80..83] </args>
      <args> x[65] x[100..103] </args>
      <args> x[8] x[112..115] </args>
      <args> x[77] x[108..111] </args>
      <args> x[9] x[116..119] </args>
      <args> x[2] x[88..91] </args>
      <args> x[5] x[100..103] </args>
      <args> x[46] x[104..107] </args>
    </group>
    <group>
      <sum>
        <list> %... </list>
        <condition> (ge,1) </condition>
      </sum>
      <args> x[60..69] </args>
      <args> x[0..9] </args>
      <args> x[30..39] </args>
      <args> x[70..79] </args>
      <args> x[20..29] </args>
      <args> x[10..19] </args>
      <args> x[40..49] </args>
      <args> x[50..59] </args>
    </group>
    <group>
      <sum>
        <list> %... </list>
        <coeffs> -1 -1 -1 -1 -1 -1 -1 -1 </coeffs>
        <condition> (ge,-1) </condition>
      </sum>
      <args> x[0] x[10] x[20] x[30] x[40] x[50] x[60] x[70] </args>
      <args> x[1] x[11] x[21] x[31] x[41] x[51] x[61] x[71] </args>
      <args> x[2] x[12] x[22] x[32] x[42] x[52] x[62] x[72] </args>
      <args> x[3] x[13] x[23] x[33] x[43] x[53] x[63] x[73] </args>
      <args> x[4] x[14] x[24] x[34] x[44] x[54] x[64] x[74] </args>
      <args> x[5] x[15] x[25] x[35] x[45] x[55] x[65] x[75] </args>
      <args> x[6] x[16] x[26] x[36] x[46] x[56] x[66] x[76] </args>
      <args> x[7] x[17] x[27] x[37] x[47] x[57] x[67] x[77] </args>
      <args> x[8] x[18] x[28] x[38] x[48] x[58] x[68] x[78] </args>
      <args> x[9] x[19] x[29] x[39] x[49] x[59] x[69] x[79] </args>
    </group>
    <group>
      <sum>
        <list> %... </list>
        <coeffs> -1 -1 -1 -1 -1 </coeffs>
        <condition> (ge,-1) </condition>
      </sum>
      <args> x[80] x[84] x[88] x[92] x[96] </args>
      <args> x[81] x[85] x[89] x[93] x[97] </args>
      <args> x[82] x[86] x[90] x[94] x[98] </args>
      <args> x[83] x[87] x[91] x[95] x[99] </args>
      <args> x[100] x[104] x[108] x[112] x[116] </args>
      <args> x[101] x[105] x[109] x[113] x[117] </args>
      <args> x[102] x[106] x[110] x[114] x[118] </args>
      <args> x[103] x[107] x[111] x[115] x[119] </args>
    </group>
  </constraints>
</instance>

